(set-logic ALL)
(set-option :produce-models true)
(declare-fun sym209 () String)
(assert (<= (str.len sym209) 1))
(declare-fun sym1901 () String)
(assert (<= (str.len sym1901) 1))
(declare-fun sym3618 () String)
(assert (<= (str.len sym3618) 1))
(declare-fun sym3717 () String)
(assert (<= (str.len sym3717) 1))
(declare-fun sym817 () String)
(assert (<= (str.len sym817) 1))
(declare-fun sym2119 () String)
(assert (<= (str.len sym2119) 1))
(declare-fun sym1688 () String)
(assert (<= (str.len sym1688) 1))
(declare-fun sym1039 () String)
(assert (<= (str.len sym1039) 1))
(declare-fun sym551 () String)
(assert (<= (str.len sym551) 1))
(declare-fun sym3405 () String)
(assert (<= (str.len sym3405) 1))
(declare-fun sym2756 () String)
(assert (<= (str.len sym2756) 1))
(declare-fun sym1257 () String)
(assert (<= (str.len sym1257) 1))
(declare-fun sym2974 () String)
(assert (<= (str.len sym2974) 1))
(declare-fun sym2332 () String)
(assert (<= (str.len sym2332) 1))
(declare-fun sym3187 () String)
(assert (<= (str.len sym3187) 1))
(declare-fun sym2550 () String)
(assert (<= (str.len sym2550) 1))
(declare-fun sym161 () String)
(assert (<= (str.len sym161) 1))
(declare-fun sym1470 () String)
(assert (<= (str.len sym1470) 1))
(define-fun Alphabet () RegLan 
	(re.* (re.union (str.to_re "A") (str.to_re "B") (str.to_re "C") (str.to_re "D") (str.to_re "E") (str.to_re "F") (str.to_re "G") (str.to_re "H") (str.to_re "I") (str.to_re "J") (str.to_re "K") (str.to_re "L") (str.to_re "M") (str.to_re "N") (str.to_re "O") (str.to_re "P") (str.to_re "Q") (str.to_re "R") (str.to_re "S") (str.to_re "T") (str.to_re "U") (str.to_re "V") (str.to_re "W") (str.to_re "X") (str.to_re "Y") (str.to_re "Z") (str.to_re "a") (str.to_re "b") (str.to_re "c") (str.to_re "d") (str.to_re "e") (str.to_re "f") (str.to_re "g") (str.to_re "h") (str.to_re "i") (str.to_re "j") (str.to_re "k") (str.to_re "l") (str.to_re "m") (str.to_re "n") (str.to_re "o") (str.to_re "p") (str.to_re "q") (str.to_re "r") (str.to_re "s") (str.to_re "t") (str.to_re "u") (str.to_re "v") (str.to_re "w") (str.to_re "x") (str.to_re "y") (str.to_re "z") ))
)

(assert (str.in_re sym1470 Alphabet))
(assert (str.in_re sym161 Alphabet))
(assert (str.in_re sym2550 Alphabet))
(assert (str.in_re sym3187 Alphabet))
(assert (str.in_re sym2332 Alphabet))
(assert (str.in_re sym2974 Alphabet))
(assert (str.in_re sym1257 Alphabet))
(assert (str.in_re sym2756 Alphabet))
(assert (str.in_re sym3405 Alphabet))
(assert (str.in_re sym551 Alphabet))
(assert (str.in_re sym1039 Alphabet))
(assert (str.in_re sym1688 Alphabet))
(assert (str.in_re sym2119 Alphabet))
(assert (str.in_re sym817 Alphabet))
(assert (str.in_re sym3717 Alphabet))
(assert (str.in_re sym3618 Alphabet))
(assert (str.in_re sym1901 Alphabet))
(assert (str.in_re sym209 Alphabet))(assert (<= 1 (str.len sym1470 )))
(assert (<= 1 (str.len sym1039 )))
(assert (<= 1 (str.len sym1901 )))
(assert (<= 1 (str.len sym1257 )))
(assert (<= 1 (str.len sym3405 )))
(assert (<= 1 (str.len sym209 )))
(assert (<= 1 (str.len sym1688 )))
(assert (<= 1 (str.len sym3717 )))
(assert (<= 1 (str.len sym3618 )))
(assert (<= 1 (str.len sym551 )))
(assert (<= 1 (str.len sym2550 )))
(assert (<= 1 (str.len sym2332 )))
(assert (<= 1 (str.len sym817 )))
(assert (<= 1 (str.len sym3187 )))
(assert (<= 1 (str.len sym2119 )))
(assert (<= 1 (str.len sym2974 )))
(assert (<= 1 (str.len sym2756 )))

(assert (not (= (str.to_lower (str.substr sym2550  0 1))"p" )))
(assert (not (= (str.to_lower (str.substr sym2119  0 1))"p" )))
(assert (not (= (str.to_lower (str.substr sym3405  0 1))"q" )))
(assert (= "" sym161 ))
(assert (not (= (str.to_lower (str.substr sym2550  0 1))"q" )))
(assert (not (= (str.to_lower (str.substr sym1688  0 1))"q" )))
(assert (not (= "" sym1257 )))
(assert (not (= "" sym3405 )))
(assert (= (str.to_lower (str.substr sym817  0 1))"k" ))
(assert (not (= (str.to_lower (str.substr sym1470  0 1))"q" )))
(assert (not (= (str.to_lower (str.substr sym1688  0 1))"p" )))
(assert (not (= "" sym209 )))
(assert (not (= (str.to_lower (str.substr sym2756  0 1))"q" )))
(assert (= (str.to_lower (str.substr sym1901  0 1))"p" ))
(assert (not (= "" sym3187 )))
(assert (not (= "" sym2550 )))
(assert (= "" "" ))
(assert (= (str.to_lower (str.substr sym209  0 1))"y" ))
(assert (not (= (str.to_lower (str.substr sym1257  0 1))"p" )))
(assert (not (= "" sym3618 )))
(assert (= (str.to_lower (str.substr sym2332  0 1))"p" ))
(assert (not (= "" sym2974 )))
(assert (not (= "" sym3717 )))
(assert (= (str.to_lower (str.substr sym3618  0 1))"p" ))
(assert (not (= "" sym2332 )))
(assert (not (= (str.to_lower (str.substr sym1039  0 1))"q" )))
(assert (not (= (str.to_lower (str.substr sym3717  0 1))"y" )))
(assert (not (= (str.to_lower (str.substr sym3618  0 1))"q" )))
(assert (= (str.to_lower (str.substr sym3187  0 1))"p" ))
(assert (not (= "" sym817 )))
(assert (not (= (str.to_lower (str.substr sym817  0 1))"q" )))
(assert (not (= (str.to_lower (str.substr sym2974  0 1))"q" )))
(assert (not (= "" sym2119 )))
(assert (= (str.to_lower (str.substr sym551  0 1))"p" ))
(assert (not (= "" sym1901 )))
(assert (not (= "" "n" )))
(assert (not (= (str.to_lower (str.substr sym2332  0 1))"q" )))
(assert (not (= "" sym1470 )))
(assert (not (= "" (str.to_lower (str.substr sym209  0 1)))))
(assert (not (= (str.to_lower (str.substr sym551  0 1))"q" )))
(assert (= (str.to_lower (str.substr sym1470  0 1))"p" ))
(assert (not (= (str.to_lower (str.substr sym3187  0 1))"q" )))
(assert (not (= "" sym551 )))
(assert (not (= "" "y" )))
(assert (= (str.to_lower (str.substr sym1688  0 1))"k" ))
(assert (not (= (str.to_lower (str.substr sym1257  0 1))"q" )))
(assert (= "y" "y" ))
(assert (not (= (str.to_lower (str.substr sym2974  0 1))"p" )))
(assert (= (str.to_lower (str.substr sym2119  0 1))"k" ))
(assert (= (str.to_lower (str.substr sym2550  0 1))"k" ))
(assert (not (= "" (str.to_lower (str.substr sym3717  0 1)))))
(assert (= (str.to_lower (str.substr sym1039  0 1))"p" ))
(assert (not (= "y" "n" )))
(assert (not (= "" sym2756 )))
(assert (not (= (str.to_lower (str.substr sym1901  0 1))"q" )))
(assert (not (= (str.to_lower (str.substr sym3405  0 1))"p" )))
(assert (not (= "" "y" )))
(assert (not (= "" "q" )))
(assert (= (str.to_lower (str.substr sym3405  0 1))"k" ))
(assert (= (str.to_lower (str.substr sym1257  0 1))"k" ))
(assert (= (str.to_lower (str.substr sym2756  0 1))"p" ))
(assert (= (str.to_lower (str.substr sym2974  0 1))"k" ))
(assert (not (= "n" "y" )))
(assert (not (= (str.to_lower (str.substr sym817  0 1))"p" )))
(assert (not (= "" sym1039 )))
(assert (not (= "" sym1688 )))
(assert (not (= (str.to_lower (str.substr sym2119  0 1))"q" )))
(check-sat)
(get-model)
(exit)
